(set-info :smt-lib-version 2.6)
(set-logic ABV)
(set-info :source |
Generated by the tool Ultimate Automizer [1,2] which implements
an automata theoretic approach [3] to software verification.

This SMT script belongs to a set of SMT scripts that was generated by
applying Ultimate Automizer to benchmarks [4] from the SV-COMP 2023 [5,6].
This script may not contain all SMT commands that Ultimate Automizer
issued. In order to meet the restrictions for SMT-COMP benchmarks 
we dropped the commands for getting values (resp. models), 
unsatisfiable cores, and interpolants.

2023-03-21, Matthias Heizmann (heizmann@informatik.uni-freiburg.de)

[1] https://ultimate.informatik.uni-freiburg.de/automizer/
[2] Matthias Heizmann, Max Barth, Daniel Dietsch, Leonard Fichtner,
     Jochen Hoenicke, Dominik Klumpp, Mehdi Naouar, Tanja Schindler,
     Frank Schüssele, Andreas Podelski: Ultimate Automizer and the
     CommuHash Normal Form (Competition Contribution). TACAS 2023
[3] Matthias Heizmann, Jochen Hoenicke, Andreas Podelski: Software Model
     Checking for People Who Love Automata. CAV 2013
[4] https://github.com/sosy-lab/sv-benchmarks
[5] Dirk Beyer: Competition on Software Verification and
     Witness Validation: SV-COMP 2023.  TACAS 2023
[6] https://sv-comp.sosy-lab.org/2023/
|)
(set-info :license "https://creativecommons.org/licenses/by/4.0/")
(set-info :category "industrial")
(set-info :status unknown)
(declare-fun ~unnamed0~0~P_ALL () (_ BitVec 32))
(declare-fun ~unnamed0~0~P_PID () (_ BitVec 32))
(declare-fun ~unnamed0~0~P_PGID () (_ BitVec 32))
(declare-fun |c_#memory_int| () (Array (_ BitVec 64) (Array (_ BitVec 64) (_ BitVec 32))))
(declare-fun |c_ULTIMATE.start_main_~a~0#1.base| () (_ BitVec 64))
(declare-fun |c_ULTIMATE.start_main_~a~0#1.offset| () (_ BitVec 64))
(declare-fun |c_ULTIMATE.start_main_~t~0#1.base| () (_ BitVec 64))
(declare-fun |c_ULTIMATE.start_main_~p~0#1.base| () (_ BitVec 64))
(declare-fun |c_ULTIMATE.start_main_~p~0#1.offset| () (_ BitVec 64))
(assert (= ~unnamed0~0~P_ALL (_ bv0 32)))
(assert (= ~unnamed0~0~P_PID (_ bv1 32)))
(assert (= (_ bv2 32) ~unnamed0~0~P_PGID))
(assert (not (let ((.cse14 (= |c_ULTIMATE.start_main_~t~0#1.base| |c_ULTIMATE.start_main_~a~0#1.base|)) (.cse4 (bvadd (_ bv4 64) |c_ULTIMATE.start_main_~a~0#1.offset|)) (.cse6 (select |c_#memory_int| |c_ULTIMATE.start_main_~p~0#1.base|)) (.cse7 (bvadd |c_ULTIMATE.start_main_~p~0#1.offset| (_ bv4 64)))) (let ((.cse0 (and (forall ((v_ArrVal_343 (Array (_ BitVec 64) (_ BitVec 32))) (v_ArrVal_339 (_ BitVec 32)) (v_arrayElimCell_35 (_ BitVec 64)) (|v_ULTIMATE.start_main_~p~0#1.base_58| (_ BitVec 64))) (let ((.cse30 (let ((.cse31 (store (store |c_#memory_int| |c_ULTIMATE.start_main_~p~0#1.base| (store .cse6 .cse7 v_ArrVal_339)) |c_ULTIMATE.start_main_~t~0#1.base| v_ArrVal_343))) (store .cse31 |v_ULTIMATE.start_main_~p~0#1.base_58| (store (select .cse31 |v_ULTIMATE.start_main_~p~0#1.base_58|) (_ bv0 64) (_ bv3 32)))))) (let ((.cse28 (select .cse30 |c_ULTIMATE.start_main_~a~0#1.base|))) (or (= (_ bv3 32) (select .cse28 |c_ULTIMATE.start_main_~a~0#1.offset|)) (forall ((v_ArrVal_349 (_ BitVec 32)) (v_ArrVal_351 (Array (_ BitVec 64) (_ BitVec 32))) (v_arrayElimCell_38 (_ BitVec 64)) (v_arrayElimCell_37 (_ BitVec 64))) (let ((.cse29 (store .cse30 |c_ULTIMATE.start_main_~a~0#1.base| (store .cse28 .cse4 v_ArrVal_349)))) (or (= (select (select (store .cse29 v_arrayElimCell_38 v_ArrVal_351) |c_ULTIMATE.start_main_~a~0#1.base|) |c_ULTIMATE.start_main_~a~0#1.offset|) (_ bv1 32)) (= (_ bv1 32) (select (select (store .cse29 v_arrayElimCell_35 v_ArrVal_351) |c_ULTIMATE.start_main_~a~0#1.base|) |c_ULTIMATE.start_main_~a~0#1.offset|)) (= (select (select (store .cse29 v_arrayElimCell_37 v_ArrVal_351) |c_ULTIMATE.start_main_~a~0#1.base|) |c_ULTIMATE.start_main_~a~0#1.offset|) (_ bv1 32))))))))) (or (forall ((v_ArrVal_343 (Array (_ BitVec 64) (_ BitVec 32))) (v_ArrVal_339 (_ BitVec 32)) (v_ArrVal_349 (_ BitVec 32)) (v_ArrVal_351 (Array (_ BitVec 64) (_ BitVec 32))) (v_arrayElimCell_35 (_ BitVec 64)) (|v_ULTIMATE.start_main_~p~0#1.base_58| (_ BitVec 64))) (let ((.cse33 (let ((.cse34 (store (store |c_#memory_int| |c_ULTIMATE.start_main_~p~0#1.base| (store .cse6 .cse7 v_ArrVal_339)) |c_ULTIMATE.start_main_~t~0#1.base| v_ArrVal_343))) (store .cse34 |v_ULTIMATE.start_main_~p~0#1.base_58| (store (select .cse34 |v_ULTIMATE.start_main_~p~0#1.base_58|) (_ bv0 64) (_ bv3 32)))))) (let ((.cse32 (select .cse33 |c_ULTIMATE.start_main_~a~0#1.base|))) (or (= |c_ULTIMATE.start_main_~a~0#1.base| |v_ULTIMATE.start_main_~p~0#1.base_58|) (= (_ bv3 32) (select .cse32 |c_ULTIMATE.start_main_~a~0#1.offset|)) (= (_ bv1 32) (select (select (store (store .cse33 |c_ULTIMATE.start_main_~a~0#1.base| (store .cse32 .cse4 v_ArrVal_349)) v_arrayElimCell_35 v_ArrVal_351) |c_ULTIMATE.start_main_~a~0#1.base|) |c_ULTIMATE.start_main_~a~0#1.offset|)))))) .cse14) (forall ((v_arrayElimCell_35 (_ BitVec 64)) (|v_ULTIMATE.start_main_~p~0#1.base_58| (_ BitVec 64))) (or (= |c_ULTIMATE.start_main_~a~0#1.base| |v_ULTIMATE.start_main_~p~0#1.base_58|) (forall ((v_ArrVal_343 (Array (_ BitVec 64) (_ BitVec 32))) (v_ArrVal_339 (_ BitVec 32))) (let ((.cse36 (let ((.cse38 (store (store |c_#memory_int| |c_ULTIMATE.start_main_~p~0#1.base| (store .cse6 .cse7 v_ArrVal_339)) |c_ULTIMATE.start_main_~t~0#1.base| v_ArrVal_343))) (store .cse38 |v_ULTIMATE.start_main_~p~0#1.base_58| (store (select .cse38 |v_ULTIMATE.start_main_~p~0#1.base_58|) (_ bv0 64) (_ bv3 32)))))) (let ((.cse37 (select .cse36 |c_ULTIMATE.start_main_~a~0#1.base|))) (or (forall ((v_ArrVal_349 (_ BitVec 32)) (v_ArrVal_351 (Array (_ BitVec 64) (_ BitVec 32)))) (let ((.cse35 (store .cse36 |c_ULTIMATE.start_main_~a~0#1.base| (store .cse37 .cse4 v_ArrVal_349)))) (or (forall ((v_arrayElimCell_38 (_ BitVec 64))) (= (select (select (store .cse35 v_arrayElimCell_38 v_ArrVal_351) |c_ULTIMATE.start_main_~a~0#1.base|) |c_ULTIMATE.start_main_~a~0#1.offset|) (_ bv1 32))) (= (_ bv1 32) (select (select (store .cse35 v_arrayElimCell_35 v_ArrVal_351) |c_ULTIMATE.start_main_~a~0#1.base|) |c_ULTIMATE.start_main_~a~0#1.offset|))))) (= (_ bv3 32) (select .cse37 |c_ULTIMATE.start_main_~a~0#1.offset|))))))))))) (and (or (= |c_ULTIMATE.start_main_~p~0#1.offset| |c_ULTIMATE.start_main_~a~0#1.offset|) .cse0) (forall ((v_ArrVal_343 (Array (_ BitVec 64) (_ BitVec 32))) (v_ArrVal_339 (_ BitVec 32)) (|v_ULTIMATE.start_main_~p~0#1.base_58| (_ BitVec 64))) (let ((.cse2 (let ((.cse5 (store (store |c_#memory_int| |c_ULTIMATE.start_main_~p~0#1.base| (store .cse6 .cse7 v_ArrVal_339)) |c_ULTIMATE.start_main_~t~0#1.base| v_ArrVal_343))) (store .cse5 |v_ULTIMATE.start_main_~p~0#1.base_58| (store (select .cse5 |v_ULTIMATE.start_main_~p~0#1.base_58|) (_ bv0 64) (_ bv3 32)))))) (let ((.cse3 (select .cse2 |c_ULTIMATE.start_main_~a~0#1.base|))) (or (forall ((v_ArrVal_349 (_ BitVec 32)) (v_ArrVal_351 (Array (_ BitVec 64) (_ BitVec 32))) (v_arrayElimCell_38 (_ BitVec 64)) (v_arrayElimCell_37 (_ BitVec 64))) (let ((.cse1 (store .cse2 |c_ULTIMATE.start_main_~a~0#1.base| (store .cse3 .cse4 v_ArrVal_349)))) (or (= (select (select (store .cse1 v_arrayElimCell_38 v_ArrVal_351) |c_ULTIMATE.start_main_~a~0#1.base|) |c_ULTIMATE.start_main_~a~0#1.offset|) (_ bv1 32)) (= (_ bv1 32) (select (select (store .cse1 |c_ULTIMATE.start_main_~t~0#1.base| v_ArrVal_351) |c_ULTIMATE.start_main_~a~0#1.base|) |c_ULTIMATE.start_main_~a~0#1.offset|)) (= (select (select (store .cse1 v_arrayElimCell_37 v_ArrVal_351) |c_ULTIMATE.start_main_~a~0#1.base|) |c_ULTIMATE.start_main_~a~0#1.offset|) (_ bv1 32))))) (= (_ bv3 32) (select .cse3 |c_ULTIMATE.start_main_~a~0#1.offset|)))))) (forall ((v_ArrVal_343 (Array (_ BitVec 64) (_ BitVec 32))) (v_ArrVal_339 (_ BitVec 32)) (v_ArrVal_349 (_ BitVec 32)) (v_ArrVal_351 (Array (_ BitVec 64) (_ BitVec 32))) (v_arrayElimCell_38 (_ BitVec 64)) (v_arrayElimCell_37 (_ BitVec 64))) (let ((.cse10 (store (store |c_#memory_int| |c_ULTIMATE.start_main_~p~0#1.base| (store .cse6 .cse7 v_ArrVal_339)) |c_ULTIMATE.start_main_~t~0#1.base| v_ArrVal_343))) (let ((.cse9 (store (select .cse10 |c_ULTIMATE.start_main_~a~0#1.base|) (_ bv0 64) (_ bv3 32)))) (let ((.cse8 (store .cse10 |c_ULTIMATE.start_main_~a~0#1.base| (store .cse9 .cse4 v_ArrVal_349)))) (or (= (select (select (store .cse8 v_arrayElimCell_37 v_ArrVal_351) |c_ULTIMATE.start_main_~a~0#1.base|) |c_ULTIMATE.start_main_~a~0#1.offset|) (_ bv1 32)) (= (_ bv3 32) (select .cse9 |c_ULTIMATE.start_main_~a~0#1.offset|)) (= (select (select (store .cse8 v_arrayElimCell_38 v_ArrVal_351) |c_ULTIMATE.start_main_~a~0#1.base|) |c_ULTIMATE.start_main_~a~0#1.offset|) (_ bv1 32))))))) (or (= |c_ULTIMATE.start_main_~a~0#1.base| |c_ULTIMATE.start_main_~p~0#1.base|) .cse0) (or (forall ((v_ArrVal_343 (Array (_ BitVec 64) (_ BitVec 32))) (v_ArrVal_339 (_ BitVec 32)) (v_ArrVal_349 (_ BitVec 32)) (v_ArrVal_351 (Array (_ BitVec 64) (_ BitVec 32))) (|v_ULTIMATE.start_main_~p~0#1.base_58| (_ BitVec 64))) (let ((.cse12 (let ((.cse13 (store (store |c_#memory_int| |c_ULTIMATE.start_main_~p~0#1.base| (store .cse6 .cse7 v_ArrVal_339)) |c_ULTIMATE.start_main_~t~0#1.base| v_ArrVal_343))) (store .cse13 |v_ULTIMATE.start_main_~p~0#1.base_58| (store (select .cse13 |v_ULTIMATE.start_main_~p~0#1.base_58|) (_ bv0 64) (_ bv3 32)))))) (let ((.cse11 (select .cse12 |c_ULTIMATE.start_main_~a~0#1.base|))) (or (= |c_ULTIMATE.start_main_~a~0#1.base| |v_ULTIMATE.start_main_~p~0#1.base_58|) (= (_ bv3 32) (select .cse11 |c_ULTIMATE.start_main_~a~0#1.offset|)) (= (_ bv1 32) (select (select (store (store .cse12 |c_ULTIMATE.start_main_~a~0#1.base| (store .cse11 .cse4 v_ArrVal_349)) |c_ULTIMATE.start_main_~t~0#1.base| v_ArrVal_351) |c_ULTIMATE.start_main_~a~0#1.base|) |c_ULTIMATE.start_main_~a~0#1.offset|)))))) .cse14) (forall ((v_ArrVal_343 (Array (_ BitVec 64) (_ BitVec 32))) (v_ArrVal_339 (_ BitVec 32)) (v_ArrVal_349 (_ BitVec 32)) (v_ArrVal_351 (Array (_ BitVec 64) (_ BitVec 32))) (v_arrayElimCell_37 (_ BitVec 64))) (let ((.cse15 (store (store |c_#memory_int| |c_ULTIMATE.start_main_~p~0#1.base| (store .cse6 .cse7 v_ArrVal_339)) |c_ULTIMATE.start_main_~t~0#1.base| v_ArrVal_343))) (let ((.cse16 (store (select .cse15 |c_ULTIMATE.start_main_~a~0#1.base|) (_ bv0 64) (_ bv3 32)))) (or (= (select (select (store (store .cse15 |c_ULTIMATE.start_main_~a~0#1.base| (store .cse16 .cse4 v_ArrVal_349)) v_arrayElimCell_37 v_ArrVal_351) |c_ULTIMATE.start_main_~a~0#1.base|) |c_ULTIMATE.start_main_~a~0#1.offset|) (_ bv1 32)) (= (_ bv3 32) (select .cse16 |c_ULTIMATE.start_main_~a~0#1.offset|)))))) (forall ((|v_ULTIMATE.start_main_~p~0#1.base_58| (_ BitVec 64))) (or (= |c_ULTIMATE.start_main_~a~0#1.base| |v_ULTIMATE.start_main_~p~0#1.base_58|) (forall ((v_ArrVal_343 (Array (_ BitVec 64) (_ BitVec 32))) (v_ArrVal_339 (_ BitVec 32))) (let ((.cse18 (let ((.cse20 (store (store |c_#memory_int| |c_ULTIMATE.start_main_~p~0#1.base| (store .cse6 .cse7 v_ArrVal_339)) |c_ULTIMATE.start_main_~t~0#1.base| v_ArrVal_343))) (store .cse20 |v_ULTIMATE.start_main_~p~0#1.base_58| (store (select .cse20 |v_ULTIMATE.start_main_~p~0#1.base_58|) (_ bv0 64) (_ bv3 32)))))) (let ((.cse19 (select .cse18 |c_ULTIMATE.start_main_~a~0#1.base|))) (or (forall ((v_ArrVal_349 (_ BitVec 32)) (v_ArrVal_351 (Array (_ BitVec 64) (_ BitVec 32)))) (let ((.cse17 (store .cse18 |c_ULTIMATE.start_main_~a~0#1.base| (store .cse19 .cse4 v_ArrVal_349)))) (or (forall ((v_arrayElimCell_38 (_ BitVec 64))) (= (select (select (store .cse17 v_arrayElimCell_38 v_ArrVal_351) |c_ULTIMATE.start_main_~a~0#1.base|) |c_ULTIMATE.start_main_~a~0#1.offset|) (_ bv1 32))) (= (_ bv1 32) (select (select (store .cse17 |c_ULTIMATE.start_main_~t~0#1.base| v_ArrVal_351) |c_ULTIMATE.start_main_~a~0#1.base|) |c_ULTIMATE.start_main_~a~0#1.offset|))))) (= (_ bv3 32) (select .cse19 |c_ULTIMATE.start_main_~a~0#1.offset|)))))))) (or (not .cse14) (and (forall ((v_ArrVal_343 (Array (_ BitVec 64) (_ BitVec 32))) (v_ArrVal_339 (_ BitVec 32)) (|v_ULTIMATE.start_main_~p~0#1.base_58| (_ BitVec 64))) (let ((.cse21 (let ((.cse23 (store (store |c_#memory_int| |c_ULTIMATE.start_main_~p~0#1.base| (store .cse6 .cse7 v_ArrVal_339)) |c_ULTIMATE.start_main_~t~0#1.base| v_ArrVal_343))) (store .cse23 |v_ULTIMATE.start_main_~p~0#1.base_58| (store (select .cse23 |v_ULTIMATE.start_main_~p~0#1.base_58|) (_ bv0 64) (_ bv3 32)))))) (let ((.cse22 (select .cse21 |c_ULTIMATE.start_main_~a~0#1.base|))) (or (= |c_ULTIMATE.start_main_~a~0#1.base| |v_ULTIMATE.start_main_~p~0#1.base_58|) (forall ((v_ArrVal_349 (_ BitVec 32)) (v_ArrVal_351 (Array (_ BitVec 64) (_ BitVec 32))) (v_arrayElimCell_38 (_ BitVec 64))) (= (select (select (store (store .cse21 |c_ULTIMATE.start_main_~a~0#1.base| (store .cse22 .cse4 v_ArrVal_349)) v_arrayElimCell_38 v_ArrVal_351) |c_ULTIMATE.start_main_~a~0#1.base|) |c_ULTIMATE.start_main_~a~0#1.offset|) (_ bv1 32))) (= (_ bv3 32) (select .cse22 |c_ULTIMATE.start_main_~a~0#1.offset|)))))) (forall ((v_ArrVal_343 (Array (_ BitVec 64) (_ BitVec 32))) (v_ArrVal_339 (_ BitVec 32)) (|v_ULTIMATE.start_main_~p~0#1.base_58| (_ BitVec 64))) (let ((.cse26 (let ((.cse27 (store (store |c_#memory_int| |c_ULTIMATE.start_main_~p~0#1.base| (store .cse6 .cse7 v_ArrVal_339)) |c_ULTIMATE.start_main_~t~0#1.base| v_ArrVal_343))) (store .cse27 |v_ULTIMATE.start_main_~p~0#1.base_58| (store (select .cse27 |v_ULTIMATE.start_main_~p~0#1.base_58|) (_ bv0 64) (_ bv3 32)))))) (let ((.cse24 (select .cse26 |c_ULTIMATE.start_main_~a~0#1.base|))) (or (= (_ bv3 32) (select .cse24 |c_ULTIMATE.start_main_~a~0#1.offset|)) (forall ((v_ArrVal_349 (_ BitVec 32)) (v_ArrVal_351 (Array (_ BitVec 64) (_ BitVec 32))) (v_arrayElimCell_38 (_ BitVec 64))) (let ((.cse25 (store .cse26 |c_ULTIMATE.start_main_~a~0#1.base| (store .cse24 .cse4 v_ArrVal_349)))) (or (forall ((v_arrayElimCell_37 (_ BitVec 64))) (= (select (select (store .cse25 v_arrayElimCell_37 v_ArrVal_351) |c_ULTIMATE.start_main_~a~0#1.base|) |c_ULTIMATE.start_main_~a~0#1.offset|) (_ bv1 32))) (= (select (select (store .cse25 v_arrayElimCell_38 v_ArrVal_351) |c_ULTIMATE.start_main_~a~0#1.base|) |c_ULTIMATE.start_main_~a~0#1.offset|) (_ bv1 32))))))))))))))))
(check-sat)
(exit)
